# Solution for model r10_t27_m6_9 Batch Number: 1
# Finished Task: 23 / 27
# Makespan: 799.0, Total Distance: 275.0, Total Time: 67.0785
# R O S F Batch
0 0 36 0.0 0.0 -1
1 1 13 0.0 0.0 -1
2 2 -1 0.0 0.0 -1
3 3 23 0.0 0.0 -1
4 4 26 0.0 0.0 -1
5 5 24 0.0 0.0 -1
6 6 10 0.0 0.0 -1
7 7 12 0.0 0.0 -1
8 8 32 0.0 0.0 -1
9 9 35 0.0 0.0 -1
10 6 27 277.0 307.0 0
11 0 17 494.0 520.0 0
12 7 16 428.0 455.0 0
13 1 -1 330.0 367.0 0
14 -1 -1 -1.0 -1.0 0
15 6 33 720.0 743.0 0
16 7 30 469.0 508.0 0
17 0 34 532.0 561.0 0
18 3 28 561.0 583.0 0
19 -1 -1 -1.0 -1.0 0
20 3 21 484.0 523.0 0
21 3 18 523.0 548.0 0
22 -1 -1 -1.0 -1.0 0
23 3 20 379.0 415.0 0
24 5 31 215.0 254.0 0
25 -1 -1 -1.0 -1.0 0
26 4 -1 772.0 799.0 0
27 6 15 693.0 720.0 0
28 3 -1 600.0 632.0 0
29 5 -1 438.0 461.0 0
30 7 -1 532.0 552.0 0
31 5 29 407.0 428.0 0
32 8 -1 623.0 659.0 0
33 6 -1 752.0 772.0 0
34 0 -1 738.0 763.0 0
35 9 -1 704.0 738.0 0
36 0 11 445.0 484.0 0
